instances/knapsack/knapsack_interdiction/knapsack_100_1_3.kp
42
100
13169

898 90.0 998 99.97
591 59.0 691 70.79
971 97.0 1071 141.46
355 36.0 455 81.63
421 42.0 521 87.87
433 43.0 533 102.54
466 47.0 566 107.61
257 26.0 357 52.47
23 2.0 123 18.59
258 26.0 358 39.82
376 38.0 476 87.14
238 24.0 338 35.82
80 8.0 180 23.71
362 36.0 462 66.73
626 63.0 726 116.69
640 64.0 740 94.52
24 2.0 124 17.36
455 46.0 555 65.83
73 7.0 173 22.89
783 78.0 883 133.58
350 35.0 450 46.7
432 43.0 532 100.77
658 66.0 758 140.94
840 84.0 940 187.52
775 78.0 875 137.55
476 48.0 576 69.39
139 14.0 239 34.38
679 68.0 779 125.2
991 99.0 1091 159.11
72 7.0 172 26.51
819 82.0 919 120.45
481 48.0 581 99.89
736 74.0 836 112.39
735 74.0 835 140.11
71 7.0 171 19.55
999 100.0 1099 142.19
844 84.0 944 115.12
915 92.0 1015 124.36
749 75.0 849 134.43
190 19.0 290 54.69
872 87.0 972 154.41
882 88.0 982 149.73
358 36.0 458 80.64
524 52.0 624 87.13
263 26.0 363 44.62
349 35.0 449 55.03
5 0.0 105 20.66
989 99.0 1089 208.36
831 83.0 931 148.57
426 43.0 526 74.09
423 42.0 523 94.31
587 59.0 687 113.13
757 76.0 857 146.42
849 85.0 949 165.28
318 32.0 418 73.49
500 50.0 600 116.07
512 51.0 612 90.04
731 73.0 831 136.04
358 36.0 458 75.61
949 95.0 1049 163.94
188 19.0 288 56.66
830 83.0 930 115.33
946 95.0 1046 167.43
365 36.0 465 48.44
614 61.0 714 142.35
781 78.0 881 173.52
948 95.0 1048 126.05
828 83.0 928 175.26
127 13.0 227 24.26
140 14.0 240 29.56
624 62.0 724 141.67
882 88.0 982 158.41
183 18.0 283 54.88
106 11.0 206 40.69
371 37.0 471 83.61
620 62.0 720 135.93
919 92.0 1019 127.36
247 25.0 347 68.04
37 4.0 137 14.87
176 18.0 276 39.23
210 21.0 310 44.1
733 73.0 833 96.76
936 94.0 1036 175.98
666 67.0 766 78.22
89 9.0 189 34.86
554 55.0 654 101.14
428 43.0 528 87.35
208 21.0 308 56.57
658 66.0 758 140.13
283 28.0 383 73.39
593 59.0 693 106.89
840 84.0 940 140.53
788 79.0 888 166.06
973 97.0 1073 117.97
280 28.0 380 73.92
137 14.0 237 38.64
754 75.0 854 107.43
965 96.0 1065 188.84
551 55.0 651 93.83
334 33.0 434 70.13

42
[25861]

[[73, 0, 137, 20, 168, 199, 154, 84, 180, 128, 245, 148, 45, 23, 17, 237, 169, 106, 115, 138, 114, 227, 19, 159, 91, 24, 9, 187, 52, 70, 21, 117, 236, 34, 220, 6, 53, 93, 108, 127, 98, 185, 203, 197, 199, 13, 200, 224, 133, 237, 102, 65, 192, 76, 1, 70, 136, 235, 119, 193, 80, 178, 186, 198, 155, 128, 134, 94, 193, 17, 139, 163, 112, 63, 3, 1, 115, 71, 43, 65, 185, 39, 74, 37, 173, 96, 129, 231, 230, 226, 145, 133, 131, 34, 223, 37, 34, 193, 226, 48]]

[[801, 731, 597, 20, 747, 109, 292, 465, 285, 431, 291, 702, 574, 319, 581, 809, 950, 444, 435, 992, 717, 348, 60, 168, 549, 328, 509, 359, 494, 532, 334, 113, 222, 955, 433, 719, 890, 208, 655, 799, 334, 103, 953, 916, 565, 25, 312, 437, 134, 142, 657, 972, 299, 901, 737, 741, 895, 215, 544, 870, 291, 282, 53, 909, 373, 961, 854, 236, 157, 185, 562, 770, 317, 222, 158, 988, 885, 140, 600, 761, 864, 361, 619, 691, 87, 967, 503, 520, 192, 456, 460, 248, 971, 610, 931, 970, 576, 394, 369, 511]]
